p edge 36 120
v 1 70
v 2 12
v 3 24
v 4 16
v 5 23
v 6 7
v 7 110
v 8 25
v 9 11
v 10 112
v 11 78
v 12 14
v 13 85
v 14 23
v 15 118
v 16 50
v 17 120
v 18 113
v 19 84
v 20 15
v 21 35
v 22 128
v 23 45
v 24 10
v 25 30
v 26 82
v 27 25
v 28 67
v 29 64
v 30 96
v 31 89
v 32 139
v 33 40
v 34 141
v 35 62
v 36 70
e 1 2
e 1 3
e 1 5
e 2 3
e 2 11
e 2 18
e 2 22
e 2 34
e 3 8
e 3 13
e 3 20
e 3 24
e 4 5
e 4 6
e 4 7
e 4 8
e 4 9
e 4 10
e 4 14
e 4 33
e 5 6
e 5 7
e 5 8
e 5 9
e 6 7
e 6 8
e 6 9
e 6 21
e 6 26
e 6 30
e 7 8
e 7 9
e 7 12
e 7 19
e 7 27
e 7 31
e 7 35
e 8 9
e 8 13
e 8 20
e 8 24
e 9 16
e 9 28
e 10 11
e 10 12
e 10 13
e 10 14
e 10 33
e 11 12
e 11 13
e 11 18
e 11 22
e 11 34
e 12 13
e 12 19
e 12 27
e 12 31
e 12 35
e 13 20
e 13 24
e 14 15
e 14 16
e 14 17
e 14 33
e 15 16
e 15 17
e 15 23
e 16 17
e 16 28
e 17 25
e 17 29
e 17 32
e 17 36
e 18 19
e 18 20
e 18 22
e 18 34
e 19 20
e 19 27
e 19 31
e 19 35
e 20 24
e 21 22
e 21 23
e 21 24
e 21 25
e 21 26
e 21 30
e 22 23
e 22 24
e 22 25
e 22 34
e 23 24
e 23 25
e 24 25
e 25 29
e 25 32
e 25 36
e 26 27
e 26 28
e 26 29
e 26 30
e 27 28
e 27 29
e 27 31
e 27 35
e 28 29
e 29 32
e 29 36
e 30 31
e 30 32
e 31 32
e 31 35
e 32 36
e 33 34
e 33 35
e 33 36
e 34 35
e 34 36
e 35 36
